c cnf generated file for haplotype inference
c author: Fernando Augusto Fernandes Braz
c contact: fernando.afb@gmail.com
p cnf 52 118
-1 0
-13 -21 0
-13 -25 0
-15 -22 0
-15 -26 0
-17 -23 0
-17 -27 0
-19 -24 0
-19 -28 0
 5  6 0
-5 -6 0
 14 -5 -21 0
-14  5 -21 0
 14 -6 -25 0
-14  6 -25 0
 16 -5 -22 0
-16  5 -22 0
 16 -6 -26 0
-16  6 -26 0
 18 -5 -23 0
-18  5 -23 0
 18 -6 -27 0
-18  6 -27 0
 20 -5 -24 0
-20  5 -24 0
 20 -6 -28 0
-20  6 -28 0
 21 -37 0
-21  37  25 -41 0
-21  37  25 -41 0
-25  41 0
-37 -21 0
-41 -25 0
-38 -22 0
-42 -26 0
-39 -23 0
-43 -27 0
-40 -24 0
-44 -28 0
 21  37 -38 0
-21  38 0
-37  38 0
 25  41 -42 0
-25  42 0
-41  42 0
 22  38 -39 0
-22  39 0
-38  39 0
 26  42 -43 0
-26  43 0
-42  43 0
 23  39 -40 0
-23  40 0
-39  40 0
 27  43 -44 0
-27  44 0
-43  44 0
 40 0
 44 0
 7 0
 13 -29 0
 13 -33 0
 15 -30 0
 15 -34 0
 17 -31 0
 17 -35 0
 19 -32 0
 19 -36 0
 11  12 0
-11 -12 0
 14 -11 -29 0
-14  11 -29 0
 14 -12 -33 0
-14  12 -33 0
 16 -11 -30 0
-16  11 -30 0
 16 -12 -34 0
-16  12 -34 0
 18 -11 -31 0
-18  11 -31 0
 18 -12 -35 0
-18  12 -35 0
 20 -11 -32 0
-20  11 -32 0
 20 -12 -36 0
-20  12 -36 0
 29 -45 0
-29  45  33 -49 0
-29  45  33 -49 0
-33  49 0
-45 -29 0
-49 -33 0
-46 -30 0
-50 -34 0
-47 -31 0
-51 -35 0
-48 -32 0
-52 -36 0
 29  45 -46 0
-29  46 0
-45  46 0
 33  49 -50 0
-33  50 0
-49  50 0
 30  46 -47 0
-30  47 0
-46  47 0
 34  50 -51 0
-34  51 0
-50  51 0
 31  47 -48 0
-31  48 0
-47  48 0
 35  51 -52 0
-35  52 0
-51  52 0
 48 0
 52 0
